50 1225
1 2 68
1 3 64
1 4 49
1 5 21
1 6 58
1 7 16
1 8 51
1 9 145
1 10 91
1 11 110
1 12 87
1 13 64
1 14 35
1 15 127
1 16 123
1 17 89
1 18 111
1 19 34
1 20 75
1 21 117
1 22 132
1 23 36
1 24 117
1 25 32
1 26 60
1 27 112
1 28 73
1 29 48
1 30 120
1 31 28
1 32 73
1 33 135
1 34 61
1 35 84
1 36 47
1 37 104
1 38 3
1 39 118
1 40 21
1 41 74
1 42 27
1 43 7
1 44 61
1 45 99
1 46 118
1 47 51
1 48 106
1 49 52
1 50 146
2 3 23
2 4 131
2 5 123
2 6 70
2 7 24
2 8 51
2 9 6
2 10 125
2 11 87
2 12 36
2 13 85
2 14 14
2 15 83
2 16 85
2 17 40
2 18 126
2 19 27
2 20 42
2 21 49
2 22 144
2 23 16
2 24 108
2 25 63
2 26 125
2 27 31
2 28 5
2 29 13
2 30 8
2 31 51
2 32 73
2 33 4
2 34 70
2 35 108
2 36 87
2 37 25
2 38 85
2 39 24
2 40 91
2 41 18
2 42 25
2 43 23
2 44 123
2 45 108
2 46 106
2 47 86
2 48 24
2 49 51
2 50 42
3 4 34
3 5 99
3 6 81
3 7 50
3 8 95
3 9 114
3 10 33
3 11 91
3 12 148
3 13 5
3 14 16
3 15 99
3 16 20
3 17 26
3 18 44
3 19 111
3 20 23
3 21 43
3 22 79
3 23 131
3 24 46
3 25 122
3 26 22
3 27 117
3 28 106
3 29 73
3 30 12
3 31 77
3 32 122
3 33 112
3 34 85
3 35 6
3 36 95
3 37 71
3 38 120
3 39 109
3 40 129
3 41 137
3 42 43
3 43 116
3 44 6
3 45 127
3 46 43
3 47 19
3 48 80
3 49 107
3 50 28
4 5 98
4 6 31
4 7 50
4 8 144
4 9 60
4 10 50
4 11 134
4 12 39
4 13 9
4 14 70
4 15 80
4 16 96
4 17 84
4 18 107
4 19 22
4 20 19
4 21 134
4 22 14
4 23 100
4 24 5
4 25 129
4 26 95
4 27 58
4 28 124
4 29 66
4 30 54
4 31 111
4 32 92
4 33 58
4 34 112
4 35 14
4 36 141
4 37 116
4 38 128
4 39 8
4 40 88
4 41 81
4 42 86
4 43 16
4 44 110
4 45 66
4 46 53
4 47 25
4 48 111
4 49 57
4 50 77
5 6 9
5 7 115
5 8 2
5 9 48
5 10 37
5 11 133
5 12 128
5 13 99
5 14 101
5 15 122
5 16 76
5 17 75
5 18 149
5 19 66
5 20 95
5 21 43
5 22 10
5 23 47
5 24 7
5 25 8
5 26 133
5 27 113
5 28 97
5 29 11
5 30 40
5 31 65
5 32 33
5 33 28
5 34 90
5 35 56
5 36 116
5 37 131
5 38 40
5 39 13
5 40 23
5 41 42
5 42 114
5 43 47
5 44 23
5 45 1
5 46 48
5 47 114
5 48 6
5 49 53
5 50 39
6 7 136
6 8 137
6 9 34
6 10 61
6 11 24
6 12 40
6 13 68
6 14 100
6 15 10
6 16 93
6 17 45
6 18 146
6 19 138
6 20 24
6 21 78
6 22 40
6 23 74
6 24 73
6 25 123
6 26 119
6 27 78
6 28 13
6 29 133
6 30 70
6 31 9
6 32 26
6 33 23
6 34 6
6 35 144
6 36 22
6 37 33
6 38 110
6 39 101
6 40 32
6 41 36
6 42 34
6 43 95
6 44 65
6 45 46
6 46 22
6 47 0
6 48 30
6 49 94
6 50 93
7 8 134
7 9 124
7 10 72
7 11 105
7 12 41
7 13 81
7 14 111
7 15 50
7 16 131
7 17 89
7 18 121
7 19 44
7 20 97
7 21 9
7 22 45
7 23 49
7 24 114
7 25 43
7 26 126
7 27 104
7 28 18
7 29 106
7 30 76
7 31 83
7 32 131
7 33 106
7 34 72
7 35 3
7 36 140
7 37 104
7 38 93
7 39 32
7 40 59
7 41 30
7 42 98
7 43 64
7 44 33
7 45 107
7 46 81
7 47 23
7 48 124
7 49 125
7 50 89
8 9 120
8 10 4
8 11 8
8 12 41
8 13 77
8 14 3
8 15 111
8 16 81
8 17 102
8 18 21
8 19 72
8 20 31
8 21 107
8 22 36
8 23 33
8 24 50
8 25 1
8 26 28
8 27 112
8 28 29
8 29 23
8 30 83
8 31 132
8 32 27
8 33 149
8 34 77
8 35 84
8 36 38
8 37 60
8 38 94
8 39 59
8 40 46
8 41 16
8 42 148
8 43 95
8 44 66
8 45 20
8 46 60
8 47 7
8 48 55
8 49 89
8 50 98
9 10 29
9 11 45
9 12 33
9 13 62
9 14 8
9 15 32
9 16 70
9 17 147
9 18 30
9 19 2
9 20 110
9 21 128
9 22 15
9 23 39
9 24 60
9 25 59
9 26 117
9 27 1
9 28 48
9 29 32
9 30 126
9 31 91
9 32 74
9 33 104
9 34 133
9 35 78
9 36 138
9 37 54
9 38 98
9 39 6
9 40 58
9 41 42
9 42 55
9 43 44
9 44 117
9 45 101
9 46 80
9 47 139
9 48 129
9 49 4
9 50 107
10 11 140
10 12 109
10 13 96
10 14 1
10 15 62
10 16 116
10 17 31
10 18 43
10 19 75
10 20 26
10 21 113
10 22 137
10 23 107
10 24 79
10 25 65
10 26 59
10 27 90
10 28 42
10 29 62
10 30 66
10 31 3
10 32 113
10 33 4
10 34 42
10 35 92
10 36 145
10 37 139
10 38 129
10 39 25
10 40 13
10 41 78
10 42 81
10 43 25
10 44 62
10 45 6
10 46 65
10 47 59
10 48 42
10 49 55
10 50 114
11 12 17
11 13 44
11 14 40
11 15 116
11 16 56
11 17 131
11 18 26
11 19 136
11 20 133
11 21 28
11 22 72
11 23 93
11 24 35
11 25 71
11 26 97
11 27 76
11 28 111
11 29 86
11 30 110
11 31 77
11 32 133
11 33 52
11 34 121
11 35 104
11 36 49
11 37 1
11 38 118
11 39 0
11 40 137
11 41 126
11 42 12
11 43 64
11 44 3
11 45 22
11 46 100
11 47 138
11 48 60
11 49 3
11 50 63
12 13 146
12 14 76
12 15 92
12 16 80
12 17 42
12 18 142
12 19 10
12 20 3
12 21 123
12 22 79
12 23 22
12 24 130
12 25 15
12 26 69
12 27 63
12 28 115
12 29 50
12 30 103
12 31 110
12 32 83
12 33 138
12 34 142
12 35 2
12 36 141
12 37 55
12 38 114
12 39 73
12 40 102
12 41 15
12 42 6
12 43 0
12 44 95
12 45 61
12 46 95
12 47 116
12 48 103
12 49 136
12 50 69
13 14 16
13 15 65
13 16 113
13 17 138
13 18 62
13 19 65
13 20 107
13 21 1
13 22 45
13 23 137
13 24 5
13 25 129
13 26 90
13 27 120
13 28 96
13 29 26
13 30 78
13 31 40
13 32 40
13 33 130
13 34 96
13 35 54
13 36 31
13 37 21
13 38 18
13 39 33
13 40 26
13 41 9
13 42 9
13 43 115
13 44 106
13 45 98
13 46 78
13 47 19
13 48 51
13 49 95
13 50 129
14 15 0
14 16 54
14 17 92
14 18 26
14 19 61
14 20 46
14 21 19
14 22 23
14 23 38
14 24 51
14 25 81
14 26 124
14 27 68
14 28 106
14 29 4
14 30 109
14 31 81
14 32 118
14 33 149
14 34 3
14 35 3
14 36 48
14 37 71
14 38 127
14 39 143
14 40 26
14 41 148
14 42 96
14 43 72
14 44 90
14 45 61
14 46 109
14 47 19
14 48 84
14 49 48
14 50 35
15 16 60
15 17 103
15 18 7
15 19 62
15 20 135
15 21 108
15 22 12
15 23 68
15 24 140
15 25 127
15 26 52
15 27 133
15 28 92
15 29 57
15 30 12
15 31 56
15 32 137
15 33 29
15 34 47
15 35 101
15 36 71
15 37 39
15 38 66
15 39 74
15 40 110
15 41 39
15 42 44
15 43 131
15 44 121
15 45 41
15 46 43
15 47 121
15 48 38
15 49 94
15 50 36
16 17 118
16 18 88
16 19 147
16 20 39
16 21 88
16 22 62
16 23 27
16 24 38
16 25 145
16 26 60
16 27 89
16 28 25
16 29 66
16 30 40
16 31 145
16 32 73
16 33 24
16 34 65
16 35 95
16 36 50
16 37 101
16 38 14
16 39 129
16 40 71
16 41 117
16 42 83
16 43 110
16 44 57
16 45 4
16 46 103
16 47 130
16 48 113
16 49 22
16 50 68
17 18 147
17 19 145
17 20 32
17 21 78
17 22 21
17 23 39
17 24 74
17 25 33
17 26 89
17 27 16
17 28 50
17 29 59
17 30 91
17 31 97
17 32 95
17 33 87
17 34 67
17 35 42
17 36 80
17 37 133
17 38 5
17 39 41
17 40 77
17 41 40
17 42 52
17 43 149
17 44 46
17 45 100
17 46 105
17 47 19
17 48 149
17 49 80
17 50 50
18 19 130
18 20 48
18 21 120
18 22 5
18 23 100
18 24 124
18 25 93
18 26 64
18 27 17
18 28 18
18 29 101
18 30 1
18 31 59
18 32 71
18 33 131
18 34 78
18 35 149
18 36 118
18 37 62
18 38 90
18 39 75
18 40 139
18 41 61
18 42 132
18 43 17
18 44 41
18 45 110
18 46 89
18 47 35
18 48 57
18 49 29
18 50 80
19 20 33
19 21 133
19 22 1
19 23 69
19 24 67
19 25 120
19 26 54
19 27 51
19 28 140
19 29 91
19 30 11
19 31 43
19 32 149
19 33 31
19 34 19
19 35 0
19 36 64
19 37 49
19 38 20
19 39 57
19 40 91
19 41 56
19 42 20
19 43 125
19 44 76
19 45 81
19 46 65
19 47 137
19 48 3
19 49 19
19 50 79
20 21 48
20 22 33
20 23 78
20 24 38
20 25 58
20 26 30
20 27 149
20 28 119
20 29 147
20 30 18
20 31 81
20 32 149
20 33 70
20 34 71
20 35 113
20 36 118
20 37 108
20 38 21
20 39 120
20 40 21
20 41 79
20 42 130
20 43 51
20 44 83
20 45 96
20 46 73
20 47 34
20 48 59
20 49 62
20 50 146
21 22 91
21 23 98
21 24 47
21 25 133
21 26 135
21 27 42
21 28 18
21 29 111
21 30 143
21 31 0
21 32 4
21 33 115
21 34 141
21 35 0
21 36 125
21 37 59
21 38 49
21 39 96
21 40 95
21 41 121
21 42 0
21 43 75
21 44 115
21 45 109
21 46 100
21 47 40
21 48 132
21 49 123
21 50 45
22 23 99
22 24 40
22 25 76
22 26 96
22 27 74
22 28 146
22 29 11
22 30 113
22 31 63
22 32 39
22 33 6
22 34 142
22 35 97
22 36 30
22 37 22
22 38 86
22 39 5
22 40 102
22 41 109
22 42 133
22 43 92
22 44 116
22 45 60
22 46 139
22 47 29
22 48 5
22 49 91
22 50 103
23 24 22
23 25 54
23 26 79
23 27 30
23 28 58
23 29 135
23 30 119
23 31 13
23 32 96
23 33 82
23 34 30
23 35 52
23 36 3
23 37 1
23 38 24
23 39 145
23 40 26
23 41 76
23 42 137
23 43 96
23 44 115
23 45 108
23 46 45
23 47 58
23 48 93
23 49 124
23 50 71
24 25 35
24 26 103
24 27 83
24 28 99
24 29 101
24 30 95
24 31 52
24 32 6
24 33 18
24 34 141
24 35 88
24 36 39
24 37 92
24 38 50
24 39 37
24 40 74
24 41 142
24 42 73
24 43 38
24 44 89
24 45 95
24 46 42
24 47 102
24 48 71
24 49 147
24 50 110
25 26 84
25 27 65
25 28 9
25 29 22
25 30 64
25 31 92
25 32 137
25 33 119
25 34 4
25 35 20
25 36 144
25 37 53
25 38 31
25 39 131
25 40 41
25 41 148
25 42 84
25 43 8
25 44 98
25 45 101
25 46 52
25 47 19
25 48 7
25 49 38
25 50 72
26 27 94
26 28 100
26 29 146
26 30 133
26 31 79
26 32 118
26 33 142
26 34 7
26 35 35
26 36 136
26 37 59
26 38 11
26 39 30
26 40 52
26 41 62
26 42 90
26 43 85
26 44 1
26 45 123
26 46 119
26 47 3
26 48 76
26 49 35
26 50 8
27 28 104
27 29 102
27 30 38
27 31 46
27 32 120
27 33 19
27 34 63
27 35 84
27 36 5
27 37 75
27 38 129
27 39 141
27 40 16
27 41 146
27 42 146
27 43 12
27 44 72
27 45 51
27 46 57
27 47 129
27 48 35
27 49 22
27 50 23
28 29 81
28 30 143
28 31 115
28 32 46
28 33 88
28 34 143
28 35 125
28 36 49
28 37 102
28 38 112
28 39 66
28 40 99
28 41 82
28 42 50
28 43 75
28 44 113
28 45 17
28 46 43
28 47 53
28 48 39
28 49 17
28 50 129
29 30 29
29 31 13
29 32 71
29 33 52
29 34 1
29 35 130
29 36 10
29 37 133
29 38 73
29 39 105
29 40 23
29 41 110
29 42 6
29 43 31
29 44 39
29 45 95
29 46 62
29 47 108
29 48 60
29 49 148
29 50 125
30 31 144
30 32 112
30 33 41
30 34 87
30 35 145
30 36 130
30 37 19
30 38 117
30 39 27
30 40 42
30 41 68
30 42 77
30 43 132
30 44 92
30 45 81
30 46 16
30 47 51
30 48 56
30 49 28
30 50 71
31 32 141
31 33 149
31 34 27
31 35 65
31 36 46
31 37 86
31 38 61
31 39 95
31 40 68
31 41 88
31 42 96
31 43 41
31 44 51
31 45 138
31 46 70
31 47 66
31 48 41
31 49 80
31 50 105
32 33 143
32 34 55
32 35 2
32 36 62
32 37 8
32 38 97
32 39 97
32 40 90
32 41 142
32 42 53
32 43 10
32 44 117
32 45 105
32 46 40
32 47 108
32 48 71
32 49 4
32 50 51
33 34 5
33 35 53
33 36 143
33 37 58
33 38 76
33 39 2
33 40 98
33 41 134
33 42 56
33 43 103
33 44 140
33 45 135
33 46 109
33 47 99
33 48 61
33 49 7
33 50 121
34 35 30
34 36 90
34 37 133
34 38 13
34 39 88
34 40 36
34 41 36
34 42 104
34 43 94
34 44 10
34 45 38
34 46 147
34 47 70
34 48 34
34 49 5
34 50 114
35 36 119
35 37 13
35 38 53
35 39 75
35 40 88
35 41 148
35 42 140
35 43 5
35 44 0
35 45 37
35 46 146
35 47 53
35 48 59
35 49 148
35 50 102
36 37 4
36 38 35
36 39 127
36 40 116
36 41 135
36 42 29
36 43 37
36 44 43
36 45 110
36 46 90
36 47 48
36 48 133
36 49 82
36 50 32
37 38 23
37 39 118
37 40 141
37 41 50
37 42 83
37 43 86
37 44 130
37 45 65
37 46 75
37 47 11
37 48 112
37 49 72
37 50 19
38 39 34
38 40 61
38 41 105
38 42 89
38 43 141
38 44 135
38 45 79
38 46 37
38 47 51
38 48 120
38 49 24
38 50 10
39 40 146
39 41 12
39 42 147
39 43 105
39 44 69
39 45 40
39 46 85
39 47 32
39 48 93
39 49 22
39 50 113
40 41 61
40 42 89
40 43 80
40 44 70
40 45 22
40 46 44
40 47 88
40 48 148
40 49 49
40 50 72
41 42 66
41 43 112
41 44 26
41 45 77
41 46 72
41 47 113
41 48 94
41 49 29
41 50 54
42 43 149
42 44 113
42 45 90
42 46 120
42 47 40
42 48 75
42 49 112
42 50 69
43 44 43
43 45 2
43 46 104
43 47 36
43 48 121
43 49 127
43 50 113
44 45 28
44 46 106
44 47 34
44 48 137
44 49 14
44 50 20
45 46 9
45 47 28
45 48 91
45 49 80
45 50 19
46 47 86
46 48 98
46 49 14
46 50 140
47 48 142
47 49 117
47 50 140
48 49 37
48 50 130
49 50 29
